98 52 63 66 49 82 54 94 69 95 3 67 65 19 89 20 45 35 77 36 22 17 32 29 10 92 99 30 81 50 73 59 71 15 25 57 41 7 56 42 88 60 70 31 44 14 61 97 74 68 38 34 27 43 33 16 12 24 53 39 85 90 46 55 8 23 5 96 0 26 87 75 51 2 4 6 58 78 28 13 80 11 91 86 79 48 47 64 62 40 93 21 37 84 18 1 76 9 72 83 

